
Value of objective function: 33.00

Actual values of the variables:
t1                              0
t2                              1
t3                              0
t4                              1
t5                              1
t6                              1
t7                              1
t8                              1
t9                              0
t10                             0
t11                             1
t12                             1
t13                             1
t14                             0
t15                             1
t16                             0
t17                             0
t18                             0
t19                             0
t20                             1
t21                             0
t22                             0
t23                             1
t24                             0
t25                             1
t26                             0
t27                             0
t28                             0
t29                             1
t30                             1
t31                             1
t32                             0
t33                             0
t34                             0
t35                             0
t36                             0
t37                             0
t38                             0
t39                             0
t40                             0
t41                             0
t42                             1
t43                             0
t44                             0
t45                             0
t46                             0
t47                             0
t48                             0
t49                             0
t50                             0
t51                             0
t52                             1
t53                             0
t54                             1
t55                             0
t56                             0
t57                             0
t58                             0
t59                             0
t60                             1
t61                             1
t62                             1
t63                             0
t64                             0
t65                             0
t66                             0
t67                             1
t68                             0
t69                             0
t70                             0
t71                             0
t72                             0
t73                             0
t74                             0
t75                             0
t76                             1
t77                             0
t78                             0
t79                             0
t80                             0
t81                             1
t82                             0
t83                             1
t84                             0
t85                             1
t86                             0
t87                             0
t88                             1
t89                             0
t90                             1
t91                             0
t92                             1
t93                             0
t94                             0
t95                             1
t96                             1
t97                             0
t98                             1
t99                             0
t100                            0
